c description: Random 3-CNF over 12 variables and 48 clauses
p cnf 12 48
1 -5 12 0
-2 -6 -8 0
3 -7 10 0
-1 7 -9 0
-1 7 10 0
3 -5 12 0
1 -3 -10 0
4 -5 -10 0
1 -8 12 0
-3 9 -11 0
-1 3 4 0
-1 8 -11 0
-1 -2 -7 0
-5 -9 -11 0
4 5 11 0
-2 -10 -11 0
4 9 -12 0
-7 8 -11 0
2 5 -8 0
-3 8 -11 0
3 8 12 0
-5 7 -11 0
2 5 -9 0
-2 -6 -11 0
-1 2 -10 0
-1 -4 12 0
1 8 -9 0
5 -7 12 0
-2 -5 7 0
4 -5 -7 0
-1 -2 5 0
-3 -4 -10 0
-1 4 11 0
-1 -2 11 0
3 -6 9 0
-2 6 12 0
-3 4 8 0
5 10 12 0
-2 9 -11 0
5 -9 -10 0
-2 3 -4 0
1 7 10 0
1 5 11 0
-4 -7 -10 0
-3 -6 12 0
1 11 12 0
-1 -9 -10 0
7 8 10 0